% Auto-generated by scripts/generate_dzn.py
% problem_type   = regex
% instance       = regex_72
% source_json    = instances_json/1_medium_blowup/regex_72.json
% blowup         = 3.111111111111111
% representation = DFA

mode = 0;

var_count = 22;
Q = 28;
S = 3;
q0 = 1;
F = {20, 21, 22, 23, 24, 25, 26, 27, 28};
d_dfa = array2d(1..28, 1..3, [
  1, 2, 1,
  1, 3, 1,
  4, 3, 1,
  5, 6, 5,
  7, 8, 7,
  7, 9, 7,
  10, 11, 10,
  10, 12, 10,
  13, 12, 10,
  14, 15, 14,
  14, 16, 14,
  17, 16, 14,
  18, 19, 18,
  20, 21, 20,
  20, 22, 20,
  23, 22, 20,
  24, 25, 24,
  26, 27, 26,
  26, 28, 26,
  1, 2, 1,
  1, 3, 1,
  4, 3, 1,
  5, 6, 5,
  7, 8, 7,
  7, 9, 7,
  10, 11, 10,
  10, 12, 10,
  13, 12, 10
]);
d_nfa = array2d(1..28, 1..3, [
  {}, {}, {},
  {}, {}, {},
  {}, {}, {},
  {}, {}, {},
  {}, {}, {},
  {}, {}, {},
  {}, {}, {},
  {}, {}, {},
  {}, {}, {},
  {}, {}, {},
  {}, {}, {},
  {}, {}, {},
  {}, {}, {},
  {}, {}, {},
  {}, {}, {},
  {}, {}, {},
  {}, {}, {},
  {}, {}, {},
  {}, {}, {},
  {}, {}, {},
  {}, {}, {},
  {}, {}, {},
  {}, {}, {},
  {}, {}, {},
  {}, {}, {},
  {}, {}, {},
  {}, {}, {},
  {}, {}, {}
]);
